
Gurobi 11.0.0 (linux64) logging started Wed Apr 10 22:08:07 2024

Set parameter LogFile to value "/lustre1/scratch/348/vsc34888/JointResearch/05.Models/06.Benchmarking/B.Operation_cost/RTS24_ByStages_nc100/openStarNet_RTS24_ByStages_nc100.log"
Set parameter Method to value 2
Set parameter MIPFocus to value 1
Set parameter Presolve to value 2
Set parameter RINS to value 100
Set parameter MIPGap to value 0.01
Set parameter Threads to value 36
Set parameter TimeLimit to value 259200
Set parameter IterationLimit to value 760000000
Gurobi Optimizer version 11.0.0 build v11.0.0rc2 (linux64 - "Rocky Linux 8.8 (Green Obsidian)")

CPU model: Intel(R) Xeon(R) Gold 6140 CPU @ 2.30GHz, instruction set [SSE2|AVX|AVX2|AVX512]
Thread count: 36 physical cores, 36 logical processors, using up to 36 threads

Optimize a model with 38903 rows, 23365 columns and 104104 nonzeros
Model fingerprint: 0x3f100c1b
Variable types: 23335 continuous, 30 integer (30 binary)
Coefficient statistics:
  Matrix range     [2e-02, 5e+02]
  Objective range  [1e+00, 1e+00]
  Bounds range     [4e-04, 3e+00]
  RHS range        [4e-04, 3e+00]
Presolve removed 20874 rows and 11019 columns
Presolve time: 0.17s
Presolved: 18029 rows, 12346 columns, 63545 nonzeros
Variable types: 12316 continuous, 30 integer (30 binary)
Found heuristic solution: objective 336.2402892
Root relaxation presolved: 18029 rows, 12346 columns, 63545 nonzeros

Root barrier log...

Ordering time: 0.01s

Barrier statistics:
 Dense cols : 30
 AA' NZ     : 1.334e+05
 Factor NZ  : 3.475e+05 (roughly 15 MB of memory)
 Factor Ops : 7.399e+06 (less than 1 second per iteration)
 Threads    : 36

                  Objective                Residual
Iter       Primal          Dual         Primal    Dual     Compl     Time
   0   7.94267768e+05 -1.24626005e+08  6.15e+00 2.64e+02  9.53e+03     0s
   1   1.36943723e+05 -3.55446207e+07  8.41e-01 7.76e-09  1.40e+03     0s
   2   5.00014838e+04 -5.51048312e+06  1.42e-01 4.34e-09  1.73e+02     0s
   3   2.79323031e+04 -5.42334684e+05  2.87e-03 5.97e-10  1.51e+01     0s
   4   1.13829808e+04 -6.78459946e+04  5.20e-05 2.13e-11  2.09e+00     0s
   5   3.31088253e+03 -1.76492848e+04  1.28e-05 1.26e-11  5.52e-01     0s
   6   1.05297296e+03 -4.57897819e+03  2.68e-06 3.99e-12  1.48e-01     0s
   7   6.23058021e+02 -1.12354562e+03  1.00e-06 9.09e-13  4.60e-02     0s
   8   3.90872158e+02 -3.42518730e+02  3.84e-07 2.73e-12  1.93e-02     0s
   9   3.13143784e+02 -2.01377738e+01  2.20e-07 1.82e-12  8.77e-03     1s
  10   2.56472908e+02  8.35247254e+01  1.16e-07 3.64e-12  4.55e-03     1s
  11   2.28662349e+02  1.30553373e+02  7.38e-08 3.64e-12  2.58e-03     1s
  12   2.23284726e+02  1.33131169e+02  6.44e-08 1.82e-12  2.37e-03     1s
  13   2.05921304e+02  1.47931746e+02  3.17e-08 1.82e-12  1.53e-03     1s
  14   1.99022591e+02  1.63637711e+02  1.93e-08 1.82e-12  9.31e-04     1s
  15   1.95152759e+02  1.73098190e+02  1.25e-08 1.82e-12  5.81e-04     1s
  16   1.92607169e+02  1.78508240e+02  8.01e-09 1.82e-12  3.71e-04     1s
  17   1.90807076e+02  1.81377624e+02  4.60e-09 1.82e-12  2.48e-04     1s
  18   1.89850722e+02  1.83616589e+02  2.89e-09 9.09e-13  1.64e-04     1s
  19   1.89002906e+02  1.85331166e+02  1.33e-09 1.82e-12  9.66e-05     1s
  20   1.88780256e+02  1.87333038e+02  9.32e-10 1.82e-12  3.81e-05     1s
  21   1.88493345e+02  1.87830705e+02  4.16e-10 1.82e-12  1.74e-05     1s
  22   1.88419512e+02  1.88115927e+02  2.96e-10 1.82e-12  7.99e-06     1s
  23   1.88399270e+02  1.88191086e+02  2.58e-10 9.09e-13  5.48e-06     1s
  24   1.88299503e+02  1.88227372e+02  1.17e-10 1.82e-12  1.90e-06     1s
  25   1.88263796e+02  1.88248115e+02  1.28e-10 1.82e-12  4.13e-07     1s
  26   1.88257371e+02  1.88256008e+02  1.45e-10 1.82e-12  3.59e-08     1s
  27   1.88256882e+02  1.88256751e+02  1.03e-10 1.82e-12  3.45e-09     1s
  28   1.88256816e+02  1.88256816e+02  7.05e-11 9.09e-13  8.89e-12     1s

Barrier solved model in 28 iterations and 0.69 seconds (0.52 work units)
Optimal objective 1.88256816e+02


Root relaxation: objective 1.882568e+02, 2816 iterations, 0.50 seconds (0.32 work units)

    Nodes    |    Current Node    |     Objective Bounds      |     Work
 Expl Unexpl |  Obj  Depth IntInf | Incumbent    BestBd   Gap | It/Node Time

     0     0  188.25682    0   21  336.24029  188.25682  44.0%     -    1s
H    0     0                     254.0062848  191.20092  24.7%     -    1s
     0     0  191.20092    0   19  254.00628  191.20092  24.7%     -    1s
     0     0  191.30119    0   18  254.00628  191.30119  24.7%     -    2s
     0     0  191.30158    0   19  254.00628  191.30158  24.7%     -    2s
     0     0  192.02313    0   19  254.00628  192.02313  24.4%     -    3s
     0     0  192.07272    0   18  254.00628  192.07272  24.4%     -    3s
     0     0  192.07817    0   17  254.00628  192.07817  24.4%     -    3s
     0     0  192.07817    0   17  254.00628  192.07817  24.4%     -    3s
     0     0  192.31993    0   17  254.00628  192.31993  24.3%     -    3s
     0     0  192.32655    0   16  254.00628  192.32655  24.3%     -    4s
     0     0  192.32670    0   17  254.00628  192.32670  24.3%     -    4s
     0     0  192.39552    0   16  254.00628  192.39552  24.3%     -    4s
     0     0  192.40037    0   16  254.00628  192.40037  24.3%     -    4s
     0     0  192.40038    0   16  254.00628  192.40038  24.3%     -    4s
H    0     0                     249.3998412  192.40038  22.9%     -    6s
     0     0  193.11172    0   17  249.39984  193.11172  22.6%     -    6s
H    0     0                     219.5822997  193.11172  12.1%     -   34s
     0     2  193.11172    0   17  219.58230  193.11172  12.1%     -   35s
H   97   128                     219.2030169  198.34371  9.52%   871   73s
H  118   128                     218.9046693  198.34371  9.39%   816   73s
   205   231  204.13645    9   14  218.90467  198.34371  9.39%   682   75s
   778   480  205.42898   10   11  218.90467  198.53736  9.30%   500   80s
  1152   565  212.96748   15    8  218.90467  198.53736  9.30%   457   94s
  1214   596  213.13960   16    7  218.90467  198.53736  9.30%   451   95s
  2272   747     cutoff    9       218.90467  200.58127  8.37%   403  100s
  3505   946     cutoff   15       218.90467  207.72916  5.11%   379  105s
  4793  1128  214.46689   12    9  218.90467  209.80215  4.16%   349  146s
  5089  1185  218.64293   20    2  218.90467  210.29643  3.93%   343  176s
  6412  1353  213.21395   14    9  218.90467  211.44777  3.41%   322  180s
  8627  1534  216.68198   18    5  218.90467  213.02751  2.68%   296  185s
  9881  1581     cutoff   16       218.90467  213.41844  2.51%   284  217s
 11355  1627  218.76069   19    5  218.90467  214.35703  2.08%   272  220s
 12174  1613  216.65143   15    5  218.90467  214.49743  2.01%   267  243s
 13063  1577     cutoff   13       218.90467  214.81656  1.87%   261  245s
 16136  1226     cutoff   18       218.90467  215.84268  1.40%   245  250s

Cutting planes:
  Gomory: 2
  Implied bound: 75
  MIR: 699
  Relax-and-lift: 46

Explored 19701 nodes (4502134 simplex iterations) in 254.75 seconds (277.60 work units)
Thread count was 36 (of 36 available processors)

Solution count 6: 218.905 219.203 219.582 ... 336.24

Optimal solution found (tolerance 1.00e-02)
Best objective 2.189046693470e+02, best bound 2.171358514730e+02, gap 0.8080%

Gurobi 11.0.0 (linux64) logging started Wed Apr 10 22:12:28 2024

Set parameter LogFile to value "/lustre1/scratch/348/vsc34888/JointResearch/05.Models/06.Benchmarking/B.Operation_cost/RTS24_ByStages_nc100/openStarNet_RTS24_ByStages_nc100.log"
Set parameter Method to value 2
Set parameter MIPFocus to value 1
Set parameter Presolve to value 2
Set parameter RINS to value 100
Set parameter MIPGap to value 0.01
Set parameter Threads to value 36
Set parameter TimeLimit to value 259200
Set parameter IterationLimit to value 760000000
Gurobi Optimizer version 11.0.0 build v11.0.0rc2 (linux64 - "Rocky Linux 8.8 (Green Obsidian)")

CPU model: Intel(R) Xeon(R) Gold 6140 CPU @ 2.30GHz, instruction set [SSE2|AVX|AVX2|AVX512]
Thread count: 36 physical cores, 36 logical processors, using up to 36 threads

Optimize a model with 38903 rows, 23335 columns and 92074 nonzeros
Model fingerprint: 0x898c9bb6
Coefficient statistics:
  Matrix range     [2e-02, 5e+02]
  Objective range  [1e+00, 1e+00]
  Bounds range     [4e-04, 3e+00]
  RHS range        [4e-04, 4e+01]
Presolve removed 33274 rows and 13619 columns
Presolve time: 0.05s
Presolved: 5629 rows, 9816 columns, 24845 nonzeros

Ordering time: 0.00s

Barrier statistics:
 AA' NZ     : 1.345e+04
 Factor NZ  : 4.444e+04 (roughly 5 MB of memory)
 Factor Ops : 5.755e+05 (less than 1 second per iteration)
 Threads    : 1

                  Objective                Residual
Iter       Primal          Dual         Primal    Dual     Compl     Time
   0   3.85903611e+06 -1.04410785e+08  1.53e+01 9.09e+02  8.98e+04     0s
   1   2.58357884e+05 -7.75446562e+07  8.71e-01 4.37e-11  9.03e+03     0s
   2   7.39466485e+04 -2.17542616e+07  1.75e-01 1.01e-10  1.76e+03     0s
   3   4.03517021e+04 -3.98828619e+06  2.94e-02 3.69e-11  2.75e+02     0s
   4   3.07128561e+04 -2.55157135e+05  1.40e-11 2.05e-11  1.81e+01     0s
   5   1.54005797e+04 -8.45419155e+04  5.89e-12 1.21e-11  6.34e+00     0s
   6   5.07953382e+03 -2.81201466e+04  2.61e-12 7.28e-12  2.11e+00     0s
   7   1.26497187e+03 -4.88838236e+03  1.81e-12 7.28e-12  3.90e-01     0s
   8   4.20998883e+02 -1.30007591e+03  9.28e-12 7.28e-12  1.09e-01     0s
   9   3.30768996e+02 -2.08710014e+02  2.11e-12 7.28e-12  3.42e-02     0s
  10   2.85769507e+02 -1.40599142e+01  1.67e-12 7.28e-12  1.90e-02     0s
  11   2.57797794e+02  1.05475909e+02  1.88e-12 7.28e-12  9.67e-03     0s
  12   2.38739157e+02  1.66391357e+02  2.07e-12 3.64e-12  4.59e-03     0s
  13   2.26067481e+02  1.94679450e+02  1.13e-12 7.28e-12  1.99e-03     0s
  14   2.20353440e+02  2.16149076e+02  1.40e-12 7.28e-12  2.67e-04     0s
  15   2.19154949e+02  2.18329755e+02  2.80e-12 1.46e-11  5.24e-05     0s
  16   2.18983048e+02  2.18789760e+02  3.41e-12 7.28e-12  1.23e-05     0s
  17   2.18917016e+02  2.18888593e+02  5.13e-12 7.28e-12  1.80e-06     0s
  18   2.18905400e+02  2.18902637e+02  3.86e-12 7.28e-12  1.75e-07     0s
  19   2.18904683e+02  2.18904641e+02  3.79e-12 3.64e-12  2.64e-09     0s
  20   2.18904669e+02  2.18904669e+02  3.18e-12 1.46e-11  2.64e-12     0s
  21   2.18904669e+02  2.18904669e+02  4.79e-13 7.28e-12  2.64e-15     0s

Barrier solved model in 21 iterations and 0.12 seconds (0.11 work units)
Optimal objective 2.18904669e+02

Crossover log...

    1072 DPushes remaining with DInf 0.0000000e+00                 0s
       0 DPushes remaining with DInf 0.0000000e+00                 0s

     395 PPushes remaining with PInf 0.0000000e+00                 0s
       0 PPushes remaining with PInf 0.0000000e+00                 0s

  Push phase complete: Pinf 0.0000000e+00, Dinf 1.3442240e-12      0s

Iteration    Objective       Primal Inf.    Dual Inf.      Time
     425    2.1890467e+02   0.000000e+00   0.000000e+00      0s

Use crossover to convert LP symmetric solution to basic solution...
Crossover log...

       0 DPushes remaining with DInf 0.0000000e+00                 0s

     198 PPushes remaining with PInf 0.0000000e+00                 0s
       0 PPushes remaining with PInf 0.0000000e+00                 0s

  Push phase complete: Pinf 0.0000000e+00, Dinf 1.6395759e-12      0s

Iteration    Objective       Primal Inf.    Dual Inf.      Time
     629    2.1890467e+02   0.000000e+00   0.000000e+00      0s

Solved in 629 iterations and 0.17 seconds (0.14 work units)
Optimal objective  2.189046693e+02
